db/data/175430542174582157917190976187415414.z3.out
-------------------
2500.158641254
